LAMMPS (19 Nov 2024 - Development)
Created orthogonal box = (0 0 0) to (0.064 0.064 0.136)
  1 by 1 by 1 MPI processor grid
Changing box ...
Reading data file ...
  orthogonal box = (0 0 0) to (0.064 0.064 0.136)
  1 by 1 by 1 MPI processor grid
  reading atoms ...
  19387 atoms
  reading velocities ...
  19387 velocities
  read_data CPU = 0.123 seconds
10000 atoms in group fines
9387 atoms in group bed
Generated 0 of 1 mixed pair_coeff terms from geometric mixing rule
Neighbor list info ...
  update: every = 1 steps, delay = 0 steps, check = yes
  max neighbors/atom: 2000, page size: 100000
  master list distance cutoff = 0.005
  ghost atom cutoff = 0.005
  binsize = 0.0025, bins = 26 26 55
  1 neighbor lists, perpetual/occasional/extra = 1 0 0
  (1) pair granular, perpetual
      attributes: half, newton off, size, history
      pair build: half/size/bin/atomonly/newtoff
      stencil: full/bin/3d
      bin: standard
Setting up Verlet run ...
  Unit style    : si
  Current step  : 0
  Time step     : 1e-05
Per MPI rank memory allocation (min/avg/max) = 24.62 | 24.62 | 24.62 Mbytes
   Step        Atoms        KinEng    
         0       19387   0            
     10000       19387   3.0179349e-05
     20000       19387   2.6576813e-05
     30000       19387   2.404739e-05 
     40000       19387   2.2099296e-05
     50000       19387   2.0144499e-05
     60000       19387   1.7927787e-05
     70000       19387   1.5839024e-05
     80000       19387   1.4460966e-05
     90000       19387   1.3045408e-05
    100000       19387   1.1831906e-05
    110000       19387   1.0499983e-05
    120000       19387   9.3375486e-06
    130000       19387   8.6106134e-06
    140000       19387   7.854523e-06 
    150000       19387   7.0876152e-06
    160000       19387   6.3565103e-06
    170000       19387   5.6935039e-06
    180000       19387   5.2687191e-06
WARNING: Lost atoms: original 19387 current 19386 (../thermo.cpp:499)
    190000       19386   4.5666112e-06
    200000       19386   4.1170863e-06
    210000       19383   3.7329941e-06
    220000       19361   3.550604e-06 
    230000       19326   3.125751e-06 
    240000       19237   2.6903903e-06
    250000       19112   2.0746762e-06
    260000       18966   1.6234124e-06
    270000       18781   8.3210461e-07
    280000       18652   3.4005957e-07
    290000       18593   1.6566886e-07
    300000       18565   6.2470211e-08
    310000       18551   2.3021885e-08
    320000       18547   9.3782849e-09
    330000       18546   1.9559999e-08
    340000       18546   3.3400304e-09
    350000       18546   2.6308635e-09
    360000       18546   2.511255e-09 
    370000       18546   4.7405881e-09
    380000       18546   3.134955e-09 
    390000       18546   8.6021837e-10
    400000       18546   4.2474264e-09
    410000       18546   5.42062e-09  
    420000       18546   3.0490567e-10
    430000       18546   5.7040211e-09
    440000       18546   3.0863022e-10
    450000       18546   1.3787756e-17
    460000       18546   8.7318572e-18
    470000       18546   9.9821954e-18
    480000       18546   8.7353165e-18
    490000       18546   7.2251323e-18
    500000       18546   4.2163625e-18
    510000       18546   2.1582009e-18
    520000       18546   3.7159122e-18
    530000       18546   3.9037487e-18
    540000       18546   3.651584e-18 
    550000       18546   3.8273643e-18
    560000       18546   3.8391207e-18
    570000       18546   5.1636532e-18
    580000       18546   6.7051405e-18
    590000       18546   2.8916461e-18
    600000       18546   5.1890405e-18
    610000       18546   2.8351042e-18
    620000       18546   4.0234548e-18
    630000       18546   3.9268921e-18
    640000       18546   6.0106934e-18
    650000       18546   9.2392129e-18
    660000       18546   9.2381447e-18
    670000       18546   1.1364015e-17
    680000       18546   4.6282466e-18
    690000       18546   9.6723617e-18
    700000       18546   4.4909515e-18
    710000       18546   5.2976902e-18
    720000       18546   6.4873161e-18
    730000       18546   5.3774244e-18
    740000       18546   4.2031983e-18
    750000       18546   5.3671755e-18
    760000       18546   6.2119964e-18
    770000       18546   1.9173078e-18
    780000       18546   3.7072648e-18
    790000       18546   6.4782646e-18
    800000       18546   2.883287e-18 
    810000       18546   4.6491501e-18
    820000       18546   3.1966343e-18
    830000       18546   4.2054145e-18
    840000       18546   5.5083423e-18
    850000       18546   2.6533072e-18
    860000       18546   1.8616161e-18
    870000       18546   4.7889732e-18
    880000       18546   2.5687371e-18
    890000       18546   1.7273234e-18
    900000       18546   2.2020453e-18
    910000       18546   1.7336494e-18
    920000       18546   1.673822e-18 
    930000       18546   1.9141902e-18
    940000       18546   1.8251334e-18
    950000       18546   2.247159e-18 
    960000       18546   5.1648305e-19
    970000       18546   9.5451295e-19
    980000       18546   9.3767477e-19
    990000       18546   2.8355223e-18
   1000000       18546   4.2987645e-19
Loop time of 4571.65 on 1 procs for 1000000 steps with 18546 atoms

99.6% CPU use with 1 MPI tasks x no OpenMP threads

MPI task timing breakdown:
Section |  min time  |  avg time  |  max time  |%varavg| %total
---------------------------------------------------------------
Pair    | 3642.5     | 3642.5     | 3642.5     |   0.0 | 79.68
Neigh   | 85.522     | 85.522     | 85.522     |   0.0 |  1.87
Comm    | 173.98     | 173.98     | 173.98     |   0.0 |  3.81
Output  | 0.087087   | 0.087087   | 0.087087   |   0.0 |  0.00
Modify  | 544.7      | 544.7      | 544.7      |   0.0 | 11.91
Other   |            | 124.9      |            |       |  2.73

Nlocal:          18546 ave       18546 max       18546 min
Histogram: 1 0 0 0 0 0 0 0 0 0
Nghost:           6148 ave        6148 max        6148 min
Histogram: 1 0 0 0 0 0 0 0 0 0
Neighs:          30460 ave       30460 max       30460 min
Histogram: 1 0 0 0 0 0 0 0 0 0

Total # of neighbors = 30460
Ave neighs/atom = 1.6424027
Neighbor list builds = 2832
Dangerous builds = 0
Total wall time: 1:16:11
